c	Created in graph generator tool by Shahar Bardugo & Dorin Matzrafi
c
p	sp 20 20
c	graph contains 20 nodes and 20 arcs
c
a	1	2	7
a	6	2	77
a	4	8	26
a	1	13	132
a	14	2	181
a	9	8	89
a	8	10	185
a	1	18	149
a	3	16	196
a	8	11	167
a	14	3	30
a	14	4	35
a	13	11	65
a	17	5	106
a	16	9	21
a	17	12	116
a	14	15	65
a	15	14	74
a	11	20	154
a	17	16	141
